
Gurobi 10.0.1 (linux64) logging started Sun Nov 26 15:55:18 2023

Set parameter LogFile to value "ArtificialInstance/ExperimentV2/S2T5K2/AdRo/gurobiDoRo79.txt"
Gurobi Optimizer version 10.0.1 build v10.0.1rc0 (linux64)

CPU model: AMD EPYC 7H12 64-Core Processor, instruction set [SSE2|AVX|AVX2]
Thread count: 128 physical cores, 128 logical processors, using up to 32 threads

Academic license 656792 - for non-commercial use only - registered to b.___@student.vu.nl
Optimize a model with 8474 rows, 7930 columns and 30749 nonzeros
Model fingerprint: 0x506487ec
Variable types: 1 continuous, 7929 integer (7929 binary)
Coefficient statistics:
  Matrix range     [1e+00, 4e+01]
  Objective range  [1e+00, 2e+01]
  Bounds range     [1e+00, 1e+00]
  RHS range        [1e+00, 1e+00]
Presolve removed 4142 rows and 3845 columns
Presolve time: 0.09s
Presolved: 4332 rows, 4085 columns, 16008 nonzeros
Variable types: 1 continuous, 4084 integer (4084 binary)

Root relaxation: objective 7.550587e+01, 1177 iterations, 0.03 seconds (0.02 work units)

    Nodes    |    Current Node    |     Objective Bounds      |     Work
 Expl Unexpl |  Obj  Depth IntInf | Incumbent    BestBd   Gap | It/Node Time

     0     0   75.50587    0   20          -   75.50587      -     -    0s
H    0     0                      76.2764389   75.50587  1.01%     -    0s
H    0     0                      75.5058681   75.50587  0.00%     -    0s

Explored 1 nodes (2131 simplex iterations) in 0.21 seconds (0.15 work units)
Thread count was 32 (of 128 available processors)

Solution count 2: 75.5059 76.2764 

Optimal solution found (tolerance 1.00e-04)
Best objective 7.550586811503e+01, best bound 7.550586811503e+01, gap 0.0000%
